id: 1242
name: ns2124243
group: miplib2010
method: 2

Gurobi 7.0.2 (linux64, Matlab) logging started Mon Mar 26 10:17:35 2018


Gurobi 7.0.2 (linux64) logging started Mon Mar 26 10:17:35 2018

Optimize a model with 139280 rows, 156083 columns and 429032 nonzeros
Coefficient statistics:
  Matrix range     [5e-01, 1e+00]
  Objective range  [2e+01, 6e+03]
  Bounds range     [1e+00, 1e+00]
  RHS range        [1e+00, 1e+01]
Presolve removed 108641 rows and 108828 columns
Presolve time: 0.11s
Presolved: 30639 rows, 47255 columns, 186689 nonzeros

Ordering time: 0.03s

Barrier statistics:
 AA' NZ     : 4.365e+05
 Factor NZ  : 6.954e+05 (roughly 40 MBytes of memory)
 Factor Ops : 2.357e+07 (less than 1 second per iteration)
 Threads    : 4

                  Objective                Residual
Iter       Primal          Dual         Primal    Dual     Compl     Time
   0   1.40751089e+07 -3.34795958e+05  1.41e+03 0.00e+00  1.93e+02     0s
   1   8.45491564e+06 -2.33130402e+05  8.19e+02 1.82e-12  1.01e+02     0s
   2   1.98050637e+06 -1.46478369e+05  1.55e+02 1.82e-12  2.37e+01     0s
   3   8.02628872e+05 -2.26996702e+04  5.45e+01 9.09e-13  8.82e+00     0s
   4   3.60934843e+05  2.51641639e+04  2.17e+01 1.82e-12  3.50e+00     0s
   5   2.21765841e+05  4.04577077e+04  1.18e+01 1.82e-12  1.86e+00     0s
   6   1.14964232e+05  4.62384664e+04  4.19e+00 1.82e-12  6.93e-01     0s
   7   7.19805873e+04  5.10765260e+04  1.15e+00 1.82e-12  2.08e-01     0s
   8   6.28282092e+04  5.31671493e+04  5.68e-01 1.82e-12  9.50e-02     0s
   9   5.93706633e+04  5.34255963e+04  3.55e-01 1.82e-12  5.83e-02     0s
  10   5.71565688e+04  5.38265261e+04  2.05e-01 9.09e-13  3.25e-02     0s
  11   5.46861892e+04  5.39266324e+04  4.09e-02 1.82e-12  7.45e-03     0s
  12   5.40643263e+04  5.39880360e+04  2.79e-03 2.73e-12  7.58e-04     0s
  13   5.39983990e+04  5.39983182e+04  1.54e-12 1.82e-12  8.24e-07     0s
  14   5.39983334e+04  5.39983333e+04  7.32e-12 1.82e-12  8.24e-10     0s

Barrier solved model in 14 iterations and 0.42 seconds
Optimal objective 5.39983334e+04

Crossover log...

       0 DPushes remaining with DInf 2.0291901e-10                 1s

    4587 PPushes remaining with PInf 0.0000000e+00                 1s
       0 PPushes remaining with PInf 0.0000000e+00                 1s

  Push phase complete: Pinf 0.0000000e+00, Dinf 3.5436631e-10      1s

Iteration    Objective       Primal Inf.    Dual Inf.      Time
   19775    5.3998333e+04   0.000000e+00   0.000000e+00      1s
   19775    5.3998333e+04   0.000000e+00   0.000000e+00      1s

Solved in 19775 iterations and 0.72 seconds
Optimal objective  5.399833333e+04
status: OPTIMAL
